100
1000
200
200
200
198
198
198
197
196
196
195
195
194
194
193
192
192
191
191
191
191
190
189
188
187
187
186
186
185
185
185
185
184
183
183
183
182
182
180
180
180
180
179
178
178
177
176
176
175
175
174
173
173
173
172
172
172
172
171
170
170
170
169
168
166
165
165
165
164
164
162
162
162
162
161
161
160
160
160
160
160
159
159
158
157
157
156
156
155
155
154
151
151
151
151
150
150
150
150
150
150
